c WARNING: for repeatability, setting FPU to use double precision
d VARIABLES            226086       
d CONSTRAINTS          987038       
c ============================[ Problem Statistics ]=============================
c |                                                                             |
c |  Number of variables:        226086                                         |
c |  Number of clauses:          987038                                         |
c |  Parse time:                   0.17 s                                       |
c |                                                                             |
c ============================[ Search Statistics ]==============================
c | Conflicts |          ORIGINAL         |          LEARNT          | Progress |
c |           |    Vars  Clauses Literals |    Limit  Clauses Lit/Cl |          |
c ===============================================================================
c |       100 |  187451   887408  2149653 |   325382      100     23 | 17.089 % |
c |       250 |  187451   887408  2149653 |   357921      250     34 | 17.089 % |
c |       475 |  187451   887408  2149653 |   393713      475     43 | 17.089 % |
c |       812 |  187451   887408  2149653 |   433084      812     55 | 17.089 % |
c |      1318 |  187451   887408  2149653 |   476393     1318     61 | 17.089 % |
c |      2077 |  187451   887408  2149653 |   524032     2077     57 | 17.089 % |
c |      3216 |  187451   887408  2149653 |   576435     3216     56 | 17.089 % |
c |      4924 |  187451   887408  2149653 |   634079     4924     61 | 17.089 % |
c |      7486 |  187451   887408  2149653 |   697487     7486     65 | 17.089 % |
c |     11330 |  187451   887408  2149653 |   767235    11330     62 | 17.089 % |
c |     17096 |  187451   887408  2149653 |   843959    17096     64 | 17.089 % |
c |     25745 |  187451   887408  2149653 |   928355    25745     61 | 17.089 % |
c |     38719 |  187451   887408  2149653 |  1021191    38719     59 | 17.089 % |
c |     58180 |  187451   887408  2149653 |  1123310    58180     55 | 17.089 % |
c ===============================================================================
c restarts              : 251
c conflicts             : 78478          (2745 /sec)
c decisions             : 150989         (0.00 % random) (5280 /sec)
c propagations          : 141536158      (4949892 /sec)
c conflict literals     : 4085681        (47.76 % deleted)
d RESTARTS             251
d FAILURES             78478        
d NODES                150989       
d BACKTRACKS           150989       
d PROPAGATIONS         141536158    
d NOGOODSIZE           52.06 
d MEMORY               115.00 
d TIME                 28.5938 

s UNSATISFIABLE
